instances/knapsack/discrete_knapsack_uncertainty/knapsack_120_7.lp
\ Model knapsack_120_7
\ LP format - for model browsing. Use MPS format to capture full model detail.
\ Signature: 0x89f048c0c90eaa9
Minimize
  - 36 x[0] - 88 x[1] - 46 x[2] - 6 x[3] - 91 x[4] - 59 x[5] - 31 x[6]
   - 57 x[7] - 84 x[8] - 80 x[9] - 89 x[10] - 21 x[11] - 69 x[12]
   - 100 x[13] - 5 x[14] - 82 x[15] - 76 x[16] - 84 x[17] - 100 x[18]
   - 67 x[19] - 99 x[20] - 13 x[21] - 38 x[22] - 98 x[23] - 35 x[24]
   - 28 x[25] - 78 x[26] - 25 x[27] - 72 x[28] - 74 x[29] - 79 x[30]
   - 86 x[31] - 54 x[32] - 29 x[33] - 37 x[34] - 67 x[35] - 31 x[36]
   - 41 x[37] - 100 x[38] - 73 x[39] - 26 x[40] - 15 x[41] - 31 x[42]
   - 5 x[43] - 92 x[44] - 77 x[45] - 66 x[46] - 78 x[47] - 58 x[48]
   - 27 x[49] - 73 x[50] - 76 x[51] - 97 x[52] - 67 x[53] - 74 x[54]
   - 52 x[55] - 52 x[56] - 10 x[57] - 30 x[58] - 45 x[59] - 54 x[60]
   - 96 x[61] - 91 x[62] - 7 x[63] - 8 x[64] - 95 x[65] - 75 x[66]
   - 91 x[67] - 18 x[68] - 31 x[69] - 87 x[70] - 89 x[71] - 87 x[72]
   - 15 x[73] - 12 x[74] - 48 x[75] - 44 x[76] - 31 x[77] - 14 x[78]
   - 5 x[79] - 9 x[80] - 36 x[81] - 7 x[82] - 24 x[83] - 31 x[84]
   - 90 x[85] - 76 x[86] - 45 x[87] - 54 x[88] - 36 x[89] - 68 x[90]
   - 87 x[91] - 59 x[92] - 86 x[93] - 34 x[94] - 44 x[95] - 31 x[96]
   - 66 x[97] - 22 x[98] - 14 x[99] - 26 x[100] - 95 x[101] - 60 x[102]
   - 39 x[103] - 97 x[104] - x[105] - 96 x[106] - 74 x[107] - 92 x[108]
   - 38 x[109] - 31 x[110] - 100 x[111] - 95 x[112] - 93 x[113] - 16 x[114]
   - 23 x[115] - 73 x[116] - 75 x[117] - 72 x[118] - 33 x[119]
Subject To
 primal_upper: 3 x[0] + 52 x[1] + 54 x[2] + 51 x[3] + 52 x[4] + 61 x[5]
   + 9 x[6] + 67 x[7] + 21 x[8] + 34 x[9] + 27 x[10] + 83 x[11] + 60 x[12]
   + 36 x[13] + 40 x[14] + 84 x[15] + 97 x[16] + 28 x[17] + x[18]
   + 74 x[19] + 49 x[20] + 27 x[21] + 52 x[22] + 2 x[23] + 84 x[24]
   + 8 x[25] + 26 x[26] + 35 x[27] + 5 x[28] + 19 x[29] + x[30] + 31 x[31]
   + 3 x[32] + 57 x[33] + 100 x[34] + 37 x[35] + 48 x[36] + 80 x[37]
   + 92 x[38] + 34 x[39] + 87 x[40] + 69 x[41] + 78 x[42] + 85 x[43]
   + 63 x[44] + 30 x[45] + 77 x[46] + 53 x[47] + 27 x[48] + 80 x[49]
   + 34 x[50] + 68 x[51] + 45 x[52] + 84 x[53] + 4 x[54] + 99 x[55]
   + 89 x[56] + 78 x[57] + 100 x[58] + 26 x[59] + 92 x[60] + 14 x[61]
   + 15 x[62] + 98 x[63] + 27 x[64] + 8 x[65] + 100 x[66] + 38 x[67]
   + 64 x[68] + 97 x[69] + 97 x[70] + 65 x[71] + 18 x[72] + 39 x[73]
   + 95 x[74] + 52 x[75] + 10 x[76] + 75 x[77] + 84 x[78] + 2 x[79]
   + 85 x[80] + 13 x[81] + 90 x[82] + 85 x[83] + 33 x[84] + 29 x[85]
   + 27 x[86] + 48 x[87] + 46 x[88] + 15 x[89] + 60 x[90] + 80 x[91]
   + 68 x[92] + 19 x[93] + 20 x[94] + 5 x[95] + 53 x[96] + 56 x[97]
   + 76 x[98] + 8 x[99] + 61 x[100] + 92 x[101] + 66 x[102] + 44 x[103]
   + 65 x[104] + 6 x[105] + 3 x[106] + 50 x[107] + 86 x[108] + 21 x[109]
   + 50 x[110] + 15 x[111] + 49 x[112] + 73 x[113] + 33 x[114] + 78 x[115]
   + 55 x[116] + 41 x[117] + 13 x[118] + 52 x[119] + 0.3 r[0] + 5.2 r[1]
   + 5.4 r[2] + 5.1 r[3] + 5.2 r[4] + 6.1 r[5] + 0.9 r[6] + 6.7 r[7]
   + 2.1 r[8] + 3.4 r[9] + 2.7 r[10] + 8.3 r[11] + 6 r[12] + 3.6 r[13]
   + 4 r[14] + 8.4 r[15] + 9.7 r[16] + 2.8 r[17] + 0.1 r[18] + 7.4 r[19]
   + 4.9 r[20] + 2.7 r[21] + 5.2 r[22] + 0.2 r[23] + 8.4 r[24] + 0.8 r[25]
   + 2.6 r[26] + 3.5 r[27] + 0.5 r[28] + 1.9 r[29] + 0.1 r[30] + 3.1 r[31]
   + 0.3 r[32] + 5.7 r[33] + 10 r[34] + 3.7 r[35] + 4.8 r[36] + 8 r[37]
   + 9.2 r[38] + 3.4 r[39] + 8.7 r[40] + 6.9 r[41] + 7.8 r[42] + 8.5 r[43]
   + 6.3 r[44] + 3 r[45] + 7.7 r[46] + 5.3 r[47] + 2.7 r[48] + 8 r[49]
   + 3.4 r[50] + 6.8 r[51] + 4.5 r[52] + 8.4 r[53] + 0.4 r[54] + 9.9 r[55]
   + 8.9 r[56] + 7.8 r[57] + 10 r[58] + 2.6 r[59] + 9.2 r[60] + 1.4 r[61]
   + 1.5 r[62] + 9.8 r[63] + 2.7 r[64] + 0.8 r[65] + 10 r[66] + 3.8 r[67]
   + 6.4 r[68] + 9.7 r[69] + 9.7 r[70] + 6.5 r[71] + 1.8 r[72] + 3.9 r[73]
   + 9.5 r[74] + 5.2 r[75] + r[76] + 7.5 r[77] + 8.4 r[78] + 0.2 r[79]
   + 8.5 r[80] + 1.3 r[81] + 9 r[82] + 8.5 r[83] + 3.3 r[84] + 2.9 r[85]
   + 2.7 r[86] + 4.8 r[87] + 4.6 r[88] + 1.5 r[89] + 6 r[90] + 8 r[91]
   + 6.8 r[92] + 1.9 r[93] + 2 r[94] + 0.5 r[95] + 5.3 r[96] + 5.6 r[97]
   + 7.6 r[98] + 0.8 r[99] + 6.1 r[100] + 9.2 r[101] + 6.6 r[102]
   + 4.4 r[103] + 6.5 r[104] + 0.6 r[105] + 0.3 r[106] + 5 r[107]
   + 8.6 r[108] + 2.1 r[109] + 5 r[110] + 1.5 r[111] + 4.9 r[112]
   + 7.3 r[113] + 3.3 r[114] + 7.8 r[115] + 5.5 r[116] + 4.1 r[117]
   + 1.3 r[118] + 5.2 r[119] <= 567
 primal_lower: 1.348696682942453 x[0] + 2.436558146790264 x[1]
   + 0.6770049878838421 x[2] + 1.373189388008141 x[3]
   + 1.461800401886781 x[4] + 1.901628775371659 x[5]
   + 3.774269795239258 x[6] + 3.962557425404061 x[7]
   + 2.933353150309328 x[8] + 3.485112923500455 x[9]
   + 0.00578490947824304 x[10] + 4.398457430178941 x[11]
   + 0.8727736678329054 x[12] + 2.31327719959867 x[13]
   + 1.212353729387084 x[14] + 0.8558165598961229 x[15]
   + 1.275172222487738 x[16] + 1.594498892485408 x[17]
   + 2.389921757709404 x[18] + 0.8940122518594958 x[19]
   + 1.141827991822117 x[20] + 3.640136808627826 x[21]
   + 0.0391957166636083 x[22] + 3.901014915112148 x[23]
   + 2.125289379456639 x[24] + 4.060439490557422 x[25]
   + 3.430407166229652 x[26] + 3.676958772999305 x[27]
   + 2.841976108718359 x[28] + 0.0154416288342585 x[29]
   + 0.8447249403482697 x[30] + 2.406638874250068 x[31]
   + 0.7989415266153974 x[32] + 1.931734520865601 x[33]
   + 0.9125597580329391 x[34] + 4.765458949290278 x[35]
   + 2.113802712858548 x[36] + 4.2906504711076 x[37]
   + 3.301463122393772 x[38] + 3.234382166058939 x[39]
   + 3.060938817416748 x[40] + 1.685130678876665 x[41]
   + 3.96048988394165 x[42] + 3.978930855082358 x[43]
   + 0.7586903269252445 x[44] + 0.4270018422146794 x[45]
   + 3.554908405118184 x[46] + 3.524290937550131 x[47]
   + 1.686624252247314 x[48] + 1.335679947981765 x[49]
   + 0.4271651642247555 x[50] + 1.769766500491843 x[51]
   + 2.137298931659254 x[52] + 0.0676680580964111 x[53]
   + 0.7249235940753332 x[54] + 2.187263283427929 x[55]
   + 4.364124549376809 x[56] + 1.058649400440917 x[57]
   + 2.1529400934914 x[58] + 0.4022729478122926 x[59]
   + 3.22997455890306 x[60] + 0.2152419372797553 x[61]
   + 1.239152002577806 x[62] + 4.714040851867583 x[63]
   + 2.821173175226334 x[64] + 0.4772377980945916 x[65]
   + 1.522111649327873 x[66] + 3.963661510455197 x[67]
   + 0.3344371624873415 x[68] + 1.602822763562874 x[69]
   + 2.890812058904435 x[70] + 2.692578921695322 x[71]
   + 1.475099604733044 x[72] + 1.299048376262423 x[73]
   + 2.8957803262935 x[74] + 0.4515903817323013 x[75]
   + 1.829112668762826 x[76] + 3.075556019806485 x[77]
   + 0.8802404116465339 x[78] + 4.591110769763054 x[79]
   + 1.300875709220383 x[80] + 1.664107615270606 x[81]
   + 1.030087487587785 x[82] + 1.950728457974409 x[83]
   + 0.5272448153048727 x[84] + 3.939053238232281 x[85]
   + 3.31633842671111 x[86] + 0.9618374029187906 x[87]
   + 1.264009207590911 x[88] + 1.096577837007389 x[89]
   + 0.7827277709804593 x[90] + 1.901898193220341 x[91]
   + 2.780222119278257 x[92] + 1.256747659032122 x[93]
   + 2.5560974355431 x[94] + 4.525999920563287 x[95]
   + 2.877943264762994 x[96] + 2.166387740423315 x[97]
   + 3.289325463576435 x[98] + 3.807962014081201 x[99]
   + 3.8020887623714 x[100] + 3.069393967307594 x[101]
   + 1.760193846522455 x[102] + 3.030574478540145 x[103]
   + 4.350120475505703 x[104] + 1.376058869358738 x[105]
   + 2.745034245783131 x[106] + 2.854352651355709 x[107]
   + 1.852286434244324 x[108] + 3.809867817007345 x[109]
   + 3.157299655038709 x[110] + 3.016908048134633 x[111]
   + 3.995230635196686 x[112] + 1.904212533941335 x[113]
   + 0.8565843164407076 x[114] + 3.712995186439219 x[115]
   + 3.346235930264412 x[116] + 3.494229868659281 x[117]
   + 1.193052824637195 x[118] + 3.019015726125518 x[119] + 36 u[0]
   + 13 u[1] + 79 u[2] + 80 u[3] + 53 u[4] + 70 u[5] + 18 u[6] + 60 u[7]
   + 30 u[8] + 15 u[9] + 32 u[10] + 76 u[11] + 93 u[12] + 93 u[13]
   + 73 u[14] + 9 u[15] + 34 u[16] + 9 u[17] + 14 u[18] + 3 u[19]
   + 14 u[20] + 52 u[21] + 49 u[22] + 7 u[23] + 33 u[24] + 25 u[25]
   + 51 u[26] + 100 u[27] + 74 u[28] + 92 u[29] + 82 u[30] + 44 u[31]
   + 16 u[32] + 10 u[33] + 89 u[34] + 6 u[35] + 17 u[36] + 69 u[37]
   + 89 u[38] + 43 u[39] + 4 u[40] + 62 u[41] + 63 u[42] + 82 u[43]
   + 64 u[44] + 19 u[45] + 38 u[46] + 74 u[47] + 72 u[48] + 57 u[49]
   + 67 u[50] + 89 u[51] + 18 u[52] + 33 u[53] + 89 u[54] + 56 u[55]
   + 42 u[56] + 43 u[57] + 25 u[58] + 11 u[59] + 45 u[60] + 87 u[61]
   + 60 u[62] + 91 u[63] + 36 u[64] + 45 u[65] + 21 u[66] + 71 u[67]
   + 33 u[68] + 34 u[69] + 62 u[70] + 66 u[71] + 91 u[72] + 4 u[73]
   + 48 u[74] + 85 u[75] + 19 u[76] + 52 u[77] + 9 u[78] + 91 u[79]
   + 26 u[80] + 98 u[81] + 3 u[82] + 78 u[83] + 58 u[84] + 42 u[85]
   + 84 u[86] + 45 u[87] + 19 u[88] + 72 u[89] + 21 u[90] + 33 u[91]
   + 69 u[92] + 48 u[93] + 89 u[94] + 6 u[95] + 98 u[96] + 93 u[97] + u[98]
   + 45 u[99] + 50 u[100] + 41 u[101] + 87 u[102] + 65 u[103] + 18 u[104]
   + 19 u[105] + 92 u[106] + 51 u[107] + 83 u[108] + 26 u[109] + 55 u[110]
   + 84 u[111] + 50 u[112] + 66 u[113] + 62 u[114] + 43 u[115] + 100 u[116]
   + 14 u[117] + 54 u[118] + 37 u[119] <= 81631
 mccormick1[0]: - u[0] + r[0] <= 0
 mccormick1[1]: - u[1] + r[1] <= 0
 mccormick1[2]: - u[2] + r[2] <= 0
 mccormick1[3]: - u[3] + r[3] <= 0
 mccormick1[4]: - u[4] + r[4] <= 0
 mccormick1[5]: - u[5] + r[5] <= 0
 mccormick1[6]: - u[6] + r[6] <= 0
 mccormick1[7]: - u[7] + r[7] <= 0
 mccormick1[8]: - u[8] + r[8] <= 0
 mccormick1[9]: - u[9] + r[9] <= 0
 mccormick1[10]: - u[10] + r[10] <= 0
 mccormick1[11]: - u[11] + r[11] <= 0
 mccormick1[12]: - u[12] + r[12] <= 0
 mccormick1[13]: - u[13] + r[13] <= 0
 mccormick1[14]: - u[14] + r[14] <= 0
 mccormick1[15]: - u[15] + r[15] <= 0
 mccormick1[16]: - u[16] + r[16] <= 0
 mccormick1[17]: - u[17] + r[17] <= 0
 mccormick1[18]: - u[18] + r[18] <= 0
 mccormick1[19]: - u[19] + r[19] <= 0
 mccormick1[20]: - u[20] + r[20] <= 0
 mccormick1[21]: - u[21] + r[21] <= 0
 mccormick1[22]: - u[22] + r[22] <= 0
 mccormick1[23]: - u[23] + r[23] <= 0
 mccormick1[24]: - u[24] + r[24] <= 0
 mccormick1[25]: - u[25] + r[25] <= 0
 mccormick1[26]: - u[26] + r[26] <= 0
 mccormick1[27]: - u[27] + r[27] <= 0
 mccormick1[28]: - u[28] + r[28] <= 0
 mccormick1[29]: - u[29] + r[29] <= 0
 mccormick1[30]: - u[30] + r[30] <= 0
 mccormick1[31]: - u[31] + r[31] <= 0
 mccormick1[32]: - u[32] + r[32] <= 0
 mccormick1[33]: - u[33] + r[33] <= 0
 mccormick1[34]: - u[34] + r[34] <= 0
 mccormick1[35]: - u[35] + r[35] <= 0
 mccormick1[36]: - u[36] + r[36] <= 0
 mccormick1[37]: - u[37] + r[37] <= 0
 mccormick1[38]: - u[38] + r[38] <= 0
 mccormick1[39]: - u[39] + r[39] <= 0
 mccormick1[40]: - u[40] + r[40] <= 0
 mccormick1[41]: - u[41] + r[41] <= 0
 mccormick1[42]: - u[42] + r[42] <= 0
 mccormick1[43]: - u[43] + r[43] <= 0
 mccormick1[44]: - u[44] + r[44] <= 0
 mccormick1[45]: - u[45] + r[45] <= 0
 mccormick1[46]: - u[46] + r[46] <= 0
 mccormick1[47]: - u[47] + r[47] <= 0
 mccormick1[48]: - u[48] + r[48] <= 0
 mccormick1[49]: - u[49] + r[49] <= 0
 mccormick1[50]: - u[50] + r[50] <= 0
 mccormick1[51]: - u[51] + r[51] <= 0
 mccormick1[52]: - u[52] + r[52] <= 0
 mccormick1[53]: - u[53] + r[53] <= 0
 mccormick1[54]: - u[54] + r[54] <= 0
 mccormick1[55]: - u[55] + r[55] <= 0
 mccormick1[56]: - u[56] + r[56] <= 0
 mccormick1[57]: - u[57] + r[57] <= 0
 mccormick1[58]: - u[58] + r[58] <= 0
 mccormick1[59]: - u[59] + r[59] <= 0
 mccormick1[60]: - u[60] + r[60] <= 0
 mccormick1[61]: - u[61] + r[61] <= 0
 mccormick1[62]: - u[62] + r[62] <= 0
 mccormick1[63]: - u[63] + r[63] <= 0
 mccormick1[64]: - u[64] + r[64] <= 0
 mccormick1[65]: - u[65] + r[65] <= 0
 mccormick1[66]: - u[66] + r[66] <= 0
 mccormick1[67]: - u[67] + r[67] <= 0
 mccormick1[68]: - u[68] + r[68] <= 0
 mccormick1[69]: - u[69] + r[69] <= 0
 mccormick1[70]: - u[70] + r[70] <= 0
 mccormick1[71]: - u[71] + r[71] <= 0
 mccormick1[72]: - u[72] + r[72] <= 0
 mccormick1[73]: - u[73] + r[73] <= 0
 mccormick1[74]: - u[74] + r[74] <= 0
 mccormick1[75]: - u[75] + r[75] <= 0
 mccormick1[76]: - u[76] + r[76] <= 0
 mccormick1[77]: - u[77] + r[77] <= 0
 mccormick1[78]: - u[78] + r[78] <= 0
 mccormick1[79]: - u[79] + r[79] <= 0
 mccormick1[80]: - u[80] + r[80] <= 0
 mccormick1[81]: - u[81] + r[81] <= 0
 mccormick1[82]: - u[82] + r[82] <= 0
 mccormick1[83]: - u[83] + r[83] <= 0
 mccormick1[84]: - u[84] + r[84] <= 0
 mccormick1[85]: - u[85] + r[85] <= 0
 mccormick1[86]: - u[86] + r[86] <= 0
 mccormick1[87]: - u[87] + r[87] <= 0
 mccormick1[88]: - u[88] + r[88] <= 0
 mccormick1[89]: - u[89] + r[89] <= 0
 mccormick1[90]: - u[90] + r[90] <= 0
 mccormick1[91]: - u[91] + r[91] <= 0
 mccormick1[92]: - u[92] + r[92] <= 0
 mccormick1[93]: - u[93] + r[93] <= 0
 mccormick1[94]: - u[94] + r[94] <= 0
 mccormick1[95]: - u[95] + r[95] <= 0
 mccormick1[96]: - u[96] + r[96] <= 0
 mccormick1[97]: - u[97] + r[97] <= 0
 mccormick1[98]: - u[98] + r[98] <= 0
 mccormick1[99]: - u[99] + r[99] <= 0
 mccormick1[100]: - u[100] + r[100] <= 0
 mccormick1[101]: - u[101] + r[101] <= 0
 mccormick1[102]: - u[102] + r[102] <= 0
 mccormick1[103]: - u[103] + r[103] <= 0
 mccormick1[104]: - u[104] + r[104] <= 0
 mccormick1[105]: - u[105] + r[105] <= 0
 mccormick1[106]: - u[106] + r[106] <= 0
 mccormick1[107]: - u[107] + r[107] <= 0
 mccormick1[108]: - u[108] + r[108] <= 0
 mccormick1[109]: - u[109] + r[109] <= 0
 mccormick1[110]: - u[110] + r[110] <= 0
 mccormick1[111]: - u[111] + r[111] <= 0
 mccormick1[112]: - u[112] + r[112] <= 0
 mccormick1[113]: - u[113] + r[113] <= 0
 mccormick1[114]: - u[114] + r[114] <= 0
 mccormick1[115]: - u[115] + r[115] <= 0
 mccormick1[116]: - u[116] + r[116] <= 0
 mccormick1[117]: - u[117] + r[117] <= 0
 mccormick1[118]: - u[118] + r[118] <= 0
 mccormick1[119]: - u[119] + r[119] <= 0
 mccormick2[0]: - x[0] + r[0] <= 0
 mccormick2[1]: - x[1] + r[1] <= 0
 mccormick2[2]: - x[2] + r[2] <= 0
 mccormick2[3]: - x[3] + r[3] <= 0
 mccormick2[4]: - x[4] + r[4] <= 0
 mccormick2[5]: - x[5] + r[5] <= 0
 mccormick2[6]: - x[6] + r[6] <= 0
 mccormick2[7]: - x[7] + r[7] <= 0
 mccormick2[8]: - x[8] + r[8] <= 0
 mccormick2[9]: - x[9] + r[9] <= 0
 mccormick2[10]: - x[10] + r[10] <= 0
 mccormick2[11]: - x[11] + r[11] <= 0
 mccormick2[12]: - x[12] + r[12] <= 0
 mccormick2[13]: - x[13] + r[13] <= 0
 mccormick2[14]: - x[14] + r[14] <= 0
 mccormick2[15]: - x[15] + r[15] <= 0
 mccormick2[16]: - x[16] + r[16] <= 0
 mccormick2[17]: - x[17] + r[17] <= 0
 mccormick2[18]: - x[18] + r[18] <= 0
 mccormick2[19]: - x[19] + r[19] <= 0
 mccormick2[20]: - x[20] + r[20] <= 0
 mccormick2[21]: - x[21] + r[21] <= 0
 mccormick2[22]: - x[22] + r[22] <= 0
 mccormick2[23]: - x[23] + r[23] <= 0
 mccormick2[24]: - x[24] + r[24] <= 0
 mccormick2[25]: - x[25] + r[25] <= 0
 mccormick2[26]: - x[26] + r[26] <= 0
 mccormick2[27]: - x[27] + r[27] <= 0
 mccormick2[28]: - x[28] + r[28] <= 0
 mccormick2[29]: - x[29] + r[29] <= 0
 mccormick2[30]: - x[30] + r[30] <= 0
 mccormick2[31]: - x[31] + r[31] <= 0
 mccormick2[32]: - x[32] + r[32] <= 0
 mccormick2[33]: - x[33] + r[33] <= 0
 mccormick2[34]: - x[34] + r[34] <= 0
 mccormick2[35]: - x[35] + r[35] <= 0
 mccormick2[36]: - x[36] + r[36] <= 0
 mccormick2[37]: - x[37] + r[37] <= 0
 mccormick2[38]: - x[38] + r[38] <= 0
 mccormick2[39]: - x[39] + r[39] <= 0
 mccormick2[40]: - x[40] + r[40] <= 0
 mccormick2[41]: - x[41] + r[41] <= 0
 mccormick2[42]: - x[42] + r[42] <= 0
 mccormick2[43]: - x[43] + r[43] <= 0
 mccormick2[44]: - x[44] + r[44] <= 0
 mccormick2[45]: - x[45] + r[45] <= 0
 mccormick2[46]: - x[46] + r[46] <= 0
 mccormick2[47]: - x[47] + r[47] <= 0
 mccormick2[48]: - x[48] + r[48] <= 0
 mccormick2[49]: - x[49] + r[49] <= 0
 mccormick2[50]: - x[50] + r[50] <= 0
 mccormick2[51]: - x[51] + r[51] <= 0
 mccormick2[52]: - x[52] + r[52] <= 0
 mccormick2[53]: - x[53] + r[53] <= 0
 mccormick2[54]: - x[54] + r[54] <= 0
 mccormick2[55]: - x[55] + r[55] <= 0
 mccormick2[56]: - x[56] + r[56] <= 0
 mccormick2[57]: - x[57] + r[57] <= 0
 mccormick2[58]: - x[58] + r[58] <= 0
 mccormick2[59]: - x[59] + r[59] <= 0
 mccormick2[60]: - x[60] + r[60] <= 0
 mccormick2[61]: - x[61] + r[61] <= 0
 mccormick2[62]: - x[62] + r[62] <= 0
 mccormick2[63]: - x[63] + r[63] <= 0
 mccormick2[64]: - x[64] + r[64] <= 0
 mccormick2[65]: - x[65] + r[65] <= 0
 mccormick2[66]: - x[66] + r[66] <= 0
 mccormick2[67]: - x[67] + r[67] <= 0
 mccormick2[68]: - x[68] + r[68] <= 0
 mccormick2[69]: - x[69] + r[69] <= 0
 mccormick2[70]: - x[70] + r[70] <= 0
 mccormick2[71]: - x[71] + r[71] <= 0
 mccormick2[72]: - x[72] + r[72] <= 0
 mccormick2[73]: - x[73] + r[73] <= 0
 mccormick2[74]: - x[74] + r[74] <= 0
 mccormick2[75]: - x[75] + r[75] <= 0
 mccormick2[76]: - x[76] + r[76] <= 0
 mccormick2[77]: - x[77] + r[77] <= 0
 mccormick2[78]: - x[78] + r[78] <= 0
 mccormick2[79]: - x[79] + r[79] <= 0
 mccormick2[80]: - x[80] + r[80] <= 0
 mccormick2[81]: - x[81] + r[81] <= 0
 mccormick2[82]: - x[82] + r[82] <= 0
 mccormick2[83]: - x[83] + r[83] <= 0
 mccormick2[84]: - x[84] + r[84] <= 0
 mccormick2[85]: - x[85] + r[85] <= 0
 mccormick2[86]: - x[86] + r[86] <= 0
 mccormick2[87]: - x[87] + r[87] <= 0
 mccormick2[88]: - x[88] + r[88] <= 0
 mccormick2[89]: - x[89] + r[89] <= 0
 mccormick2[90]: - x[90] + r[90] <= 0
 mccormick2[91]: - x[91] + r[91] <= 0
 mccormick2[92]: - x[92] + r[92] <= 0
 mccormick2[93]: - x[93] + r[93] <= 0
 mccormick2[94]: - x[94] + r[94] <= 0
 mccormick2[95]: - x[95] + r[95] <= 0
 mccormick2[96]: - x[96] + r[96] <= 0
 mccormick2[97]: - x[97] + r[97] <= 0
 mccormick2[98]: - x[98] + r[98] <= 0
 mccormick2[99]: - x[99] + r[99] <= 0
 mccormick2[100]: - x[100] + r[100] <= 0
 mccormick2[101]: - x[101] + r[101] <= 0
 mccormick2[102]: - x[102] + r[102] <= 0
 mccormick2[103]: - x[103] + r[103] <= 0
 mccormick2[104]: - x[104] + r[104] <= 0
 mccormick2[105]: - x[105] + r[105] <= 0
 mccormick2[106]: - x[106] + r[106] <= 0
 mccormick2[107]: - x[107] + r[107] <= 0
 mccormick2[108]: - x[108] + r[108] <= 0
 mccormick2[109]: - x[109] + r[109] <= 0
 mccormick2[110]: - x[110] + r[110] <= 0
 mccormick2[111]: - x[111] + r[111] <= 0
 mccormick2[112]: - x[112] + r[112] <= 0
 mccormick2[113]: - x[113] + r[113] <= 0
 mccormick2[114]: - x[114] + r[114] <= 0
 mccormick2[115]: - x[115] + r[115] <= 0
 mccormick2[116]: - x[116] + r[116] <= 0
 mccormick2[117]: - x[117] + r[117] <= 0
 mccormick2[118]: - x[118] + r[118] <= 0
 mccormick2[119]: - x[119] + r[119] <= 0
 mccormick3[0]: x[0] + u[0] - r[0] <= 1
 mccormick3[1]: x[1] + u[1] - r[1] <= 1
 mccormick3[2]: x[2] + u[2] - r[2] <= 1
 mccormick3[3]: x[3] + u[3] - r[3] <= 1
 mccormick3[4]: x[4] + u[4] - r[4] <= 1
 mccormick3[5]: x[5] + u[5] - r[5] <= 1
 mccormick3[6]: x[6] + u[6] - r[6] <= 1
 mccormick3[7]: x[7] + u[7] - r[7] <= 1
 mccormick3[8]: x[8] + u[8] - r[8] <= 1
 mccormick3[9]: x[9] + u[9] - r[9] <= 1
 mccormick3[10]: x[10] + u[10] - r[10] <= 1
 mccormick3[11]: x[11] + u[11] - r[11] <= 1
 mccormick3[12]: x[12] + u[12] - r[12] <= 1
 mccormick3[13]: x[13] + u[13] - r[13] <= 1
 mccormick3[14]: x[14] + u[14] - r[14] <= 1
 mccormick3[15]: x[15] + u[15] - r[15] <= 1
 mccormick3[16]: x[16] + u[16] - r[16] <= 1
 mccormick3[17]: x[17] + u[17] - r[17] <= 1
 mccormick3[18]: x[18] + u[18] - r[18] <= 1
 mccormick3[19]: x[19] + u[19] - r[19] <= 1
 mccormick3[20]: x[20] + u[20] - r[20] <= 1
 mccormick3[21]: x[21] + u[21] - r[21] <= 1
 mccormick3[22]: x[22] + u[22] - r[22] <= 1
 mccormick3[23]: x[23] + u[23] - r[23] <= 1
 mccormick3[24]: x[24] + u[24] - r[24] <= 1
 mccormick3[25]: x[25] + u[25] - r[25] <= 1
 mccormick3[26]: x[26] + u[26] - r[26] <= 1
 mccormick3[27]: x[27] + u[27] - r[27] <= 1
 mccormick3[28]: x[28] + u[28] - r[28] <= 1
 mccormick3[29]: x[29] + u[29] - r[29] <= 1
 mccormick3[30]: x[30] + u[30] - r[30] <= 1
 mccormick3[31]: x[31] + u[31] - r[31] <= 1
 mccormick3[32]: x[32] + u[32] - r[32] <= 1
 mccormick3[33]: x[33] + u[33] - r[33] <= 1
 mccormick3[34]: x[34] + u[34] - r[34] <= 1
 mccormick3[35]: x[35] + u[35] - r[35] <= 1
 mccormick3[36]: x[36] + u[36] - r[36] <= 1
 mccormick3[37]: x[37] + u[37] - r[37] <= 1
 mccormick3[38]: x[38] + u[38] - r[38] <= 1
 mccormick3[39]: x[39] + u[39] - r[39] <= 1
 mccormick3[40]: x[40] + u[40] - r[40] <= 1
 mccormick3[41]: x[41] + u[41] - r[41] <= 1
 mccormick3[42]: x[42] + u[42] - r[42] <= 1
 mccormick3[43]: x[43] + u[43] - r[43] <= 1
 mccormick3[44]: x[44] + u[44] - r[44] <= 1
 mccormick3[45]: x[45] + u[45] - r[45] <= 1
 mccormick3[46]: x[46] + u[46] - r[46] <= 1
 mccormick3[47]: x[47] + u[47] - r[47] <= 1
 mccormick3[48]: x[48] + u[48] - r[48] <= 1
 mccormick3[49]: x[49] + u[49] - r[49] <= 1
 mccormick3[50]: x[50] + u[50] - r[50] <= 1
 mccormick3[51]: x[51] + u[51] - r[51] <= 1
 mccormick3[52]: x[52] + u[52] - r[52] <= 1
 mccormick3[53]: x[53] + u[53] - r[53] <= 1
 mccormick3[54]: x[54] + u[54] - r[54] <= 1
 mccormick3[55]: x[55] + u[55] - r[55] <= 1
 mccormick3[56]: x[56] + u[56] - r[56] <= 1
 mccormick3[57]: x[57] + u[57] - r[57] <= 1
 mccormick3[58]: x[58] + u[58] - r[58] <= 1
 mccormick3[59]: x[59] + u[59] - r[59] <= 1
 mccormick3[60]: x[60] + u[60] - r[60] <= 1
 mccormick3[61]: x[61] + u[61] - r[61] <= 1
 mccormick3[62]: x[62] + u[62] - r[62] <= 1
 mccormick3[63]: x[63] + u[63] - r[63] <= 1
 mccormick3[64]: x[64] + u[64] - r[64] <= 1
 mccormick3[65]: x[65] + u[65] - r[65] <= 1
 mccormick3[66]: x[66] + u[66] - r[66] <= 1
 mccormick3[67]: x[67] + u[67] - r[67] <= 1
 mccormick3[68]: x[68] + u[68] - r[68] <= 1
 mccormick3[69]: x[69] + u[69] - r[69] <= 1
 mccormick3[70]: x[70] + u[70] - r[70] <= 1
 mccormick3[71]: x[71] + u[71] - r[71] <= 1
 mccormick3[72]: x[72] + u[72] - r[72] <= 1
 mccormick3[73]: x[73] + u[73] - r[73] <= 1
 mccormick3[74]: x[74] + u[74] - r[74] <= 1
 mccormick3[75]: x[75] + u[75] - r[75] <= 1
 mccormick3[76]: x[76] + u[76] - r[76] <= 1
 mccormick3[77]: x[77] + u[77] - r[77] <= 1
 mccormick3[78]: x[78] + u[78] - r[78] <= 1
 mccormick3[79]: x[79] + u[79] - r[79] <= 1
 mccormick3[80]: x[80] + u[80] - r[80] <= 1
 mccormick3[81]: x[81] + u[81] - r[81] <= 1
 mccormick3[82]: x[82] + u[82] - r[82] <= 1
 mccormick3[83]: x[83] + u[83] - r[83] <= 1
 mccormick3[84]: x[84] + u[84] - r[84] <= 1
 mccormick3[85]: x[85] + u[85] - r[85] <= 1
 mccormick3[86]: x[86] + u[86] - r[86] <= 1
 mccormick3[87]: x[87] + u[87] - r[87] <= 1
 mccormick3[88]: x[88] + u[88] - r[88] <= 1
 mccormick3[89]: x[89] + u[89] - r[89] <= 1
 mccormick3[90]: x[90] + u[90] - r[90] <= 1
 mccormick3[91]: x[91] + u[91] - r[91] <= 1
 mccormick3[92]: x[92] + u[92] - r[92] <= 1
 mccormick3[93]: x[93] + u[93] - r[93] <= 1
 mccormick3[94]: x[94] + u[94] - r[94] <= 1
 mccormick3[95]: x[95] + u[95] - r[95] <= 1
 mccormick3[96]: x[96] + u[96] - r[96] <= 1
 mccormick3[97]: x[97] + u[97] - r[97] <= 1
 mccormick3[98]: x[98] + u[98] - r[98] <= 1
 mccormick3[99]: x[99] + u[99] - r[99] <= 1
 mccormick3[100]: x[100] + u[100] - r[100] <= 1
 mccormick3[101]: x[101] + u[101] - r[101] <= 1
 mccormick3[102]: x[102] + u[102] - r[102] <= 1
 mccormick3[103]: x[103] + u[103] - r[103] <= 1
 mccormick3[104]: x[104] + u[104] - r[104] <= 1
 mccormick3[105]: x[105] + u[105] - r[105] <= 1
 mccormick3[106]: x[106] + u[106] - r[106] <= 1
 mccormick3[107]: x[107] + u[107] - r[107] <= 1
 mccormick3[108]: x[108] + u[108] - r[108] <= 1
 mccormick3[109]: x[109] + u[109] - r[109] <= 1
 mccormick3[110]: x[110] + u[110] - r[110] <= 1
 mccormick3[111]: x[111] + u[111] - r[111] <= 1
 mccormick3[112]: x[112] + u[112] - r[112] <= 1
 mccormick3[113]: x[113] + u[113] - r[113] <= 1
 mccormick3[114]: x[114] + u[114] - r[114] <= 1
 mccormick3[115]: x[115] + u[115] - r[115] <= 1
 mccormick3[116]: x[116] + u[116] - r[116] <= 1
 mccormick3[117]: x[117] + u[117] - r[117] <= 1
 mccormick3[118]: x[118] + u[118] - r[118] <= 1
 mccormick3[119]: x[119] + u[119] - r[119] <= 1
Bounds
Binaries
 x[0] x[1] x[2] x[3] x[4] x[5] x[6] x[7] x[8] x[9] x[10] x[11] x[12] x[13]
 x[14] x[15] x[16] x[17] x[18] x[19] x[20] x[21] x[22] x[23] x[24] x[25]
 x[26] x[27] x[28] x[29] x[30] x[31] x[32] x[33] x[34] x[35] x[36] x[37]
 x[38] x[39] x[40] x[41] x[42] x[43] x[44] x[45] x[46] x[47] x[48] x[49]
 x[50] x[51] x[52] x[53] x[54] x[55] x[56] x[57] x[58] x[59] x[60] x[61]
 x[62] x[63] x[64] x[65] x[66] x[67] x[68] x[69] x[70] x[71] x[72] x[73]
 x[74] x[75] x[76] x[77] x[78] x[79] x[80] x[81] x[82] x[83] x[84] x[85]
 x[86] x[87] x[88] x[89] x[90] x[91] x[92] x[93] x[94] x[95] x[96] x[97]
 x[98] x[99] x[100] x[101] x[102] x[103] x[104] x[105] x[106] x[107] x[108]
 x[109] x[110] x[111] x[112] x[113] x[114] x[115] x[116] x[117] x[118]
 x[119] u[0] u[1] u[2] u[3] u[4] u[5] u[6] u[7] u[8] u[9] u[10] u[11] u[12]
 u[13] u[14] u[15] u[16] u[17] u[18] u[19] u[20] u[21] u[22] u[23] u[24]
 u[25] u[26] u[27] u[28] u[29] u[30] u[31] u[32] u[33] u[34] u[35] u[36]
 u[37] u[38] u[39] u[40] u[41] u[42] u[43] u[44] u[45] u[46] u[47] u[48]
 u[49] u[50] u[51] u[52] u[53] u[54] u[55] u[56] u[57] u[58] u[59] u[60]
 u[61] u[62] u[63] u[64] u[65] u[66] u[67] u[68] u[69] u[70] u[71] u[72]
 u[73] u[74] u[75] u[76] u[77] u[78] u[79] u[80] u[81] u[82] u[83] u[84]
 u[85] u[86] u[87] u[88] u[89] u[90] u[91] u[92] u[93] u[94] u[95] u[96]
 u[97] u[98] u[99] u[100] u[101] u[102] u[103] u[104] u[105] u[106] u[107]
 u[108] u[109] u[110] u[111] u[112] u[113] u[114] u[115] u[116] u[117]
 u[118] u[119] r[0] r[1] r[2] r[3] r[4] r[5] r[6] r[7] r[8] r[9] r[10]
 r[11] r[12] r[13] r[14] r[15] r[16] r[17] r[18] r[19] r[20] r[21] r[22]
 r[23] r[24] r[25] r[26] r[27] r[28] r[29] r[30] r[31] r[32] r[33] r[34]
 r[35] r[36] r[37] r[38] r[39] r[40] r[41] r[42] r[43] r[44] r[45] r[46]
 r[47] r[48] r[49] r[50] r[51] r[52] r[53] r[54] r[55] r[56] r[57] r[58]
 r[59] r[60] r[61] r[62] r[63] r[64] r[65] r[66] r[67] r[68] r[69] r[70]
 r[71] r[72] r[73] r[74] r[75] r[76] r[77] r[78] r[79] r[80] r[81] r[82]
 r[83] r[84] r[85] r[86] r[87] r[88] r[89] r[90] r[91] r[92] r[93] r[94]
 r[95] r[96] r[97] r[98] r[99] r[100] r[101] r[102] r[103] r[104] r[105]
 r[106] r[107] r[108] r[109] r[110] r[111] r[112] r[113] r[114] r[115]
 r[116] r[117] r[118] r[119]
End
