instances/knapsack/discrete/knapsack_120_7.kp
79013
120
567

3 0.3 36
52 5.2 88
54 5.4 46
51 5.1 6
52 5.2 91
61 6.1 59
9 0.9 31
67 6.7 57
21 2.1 84
34 3.4 80
27 2.7 89
83 8.3 21
60 6.0 69
36 3.6 100
40 4.0 5
84 8.4 82
97 9.7 76
28 2.8 84
1 0.1 100
74 7.4 67
49 4.9 99
27 2.7 13
52 5.2 38
2 0.2 98
84 8.4 35
8 0.8 28
26 2.6 78
35 3.5 25
5 0.5 72
19 1.9 74
1 0.1 79
31 3.1 86
3 0.3 54
57 5.7 29
100 10.0 37
37 3.7 67
48 4.8 31
80 8.0 41
92 9.2 100
34 3.4 73
87 8.7 26
69 6.9 15
78 7.8 31
85 8.5 5
63 6.3 92
30 3.0 77
77 7.7 66
53 5.3 78
27 2.7 58
80 8.0 27
34 3.4 73
68 6.8 76
45 4.5 97
84 8.4 67
4 0.4 74
99 9.9 52
89 8.9 52
78 7.8 10
100 10.0 30
26 2.6 45
92 9.2 54
14 1.4 96
15 1.5 91
98 9.8 7
27 2.7 8
8 0.8 95
100 10.0 75
38 3.8 91
64 6.4 18
97 9.7 31
97 9.7 87
65 6.5 89
18 1.8 87
39 3.9 15
95 9.5 12
52 5.2 48
10 1.0 44
75 7.5 31
84 8.4 14
2 0.2 5
85 8.5 9
13 1.3 36
90 9.0 7
85 8.5 24
33 3.3 31
29 2.9 90
27 2.7 76
48 4.8 45
46 4.6 54
15 1.5 36
60 6.0 68
80 8.0 87
68 6.8 59
19 1.9 86
20 2.0 34
5 0.5 44
53 5.3 31
56 5.6 66
76 7.6 22
8 0.8 14
61 6.1 26
92 9.2 95
66 6.6 60
44 4.4 39
65 6.5 97
6 0.6 1
3 0.3 96
50 5.0 74
86 8.6 92
21 2.1 38
50 5.0 31
15 1.5 100
49 4.9 95
73 7.3 93
33 3.3 16
78 7.8 23
55 5.5 73
41 4.1 75
13 1.3 72
52 5.2 33

81631
574

[1.3486966829424527 2.4365581467902637 0.6770049878838421 1.3731893880081412 1.4618004018867812 1.9016287753716592 3.7742697952392583 3.962557425404061 2.9333531503093275 3.485112923500455 0.0057849094782430445 4.398457430178941 0.8727736678329054 2.3132771995986703 1.2123537293870839 0.8558165598961229 1.2751722224877382 1.5944988924854075 2.389921757709404 0.8940122518594958 1.141827991822117 3.640136808627826 0.03919571666360828 3.9010149151121483 2.1252893794566385 4.060439490557422 3.430407166229652 3.676958772999305 2.841976108718359 0.01544162883425847 0.8447249403482697 2.406638874250068 0.7989415266153974 1.9317345208656007 0.9125597580329391 4.765458949290278 2.1138027128585484 4.2906504711076 3.3014631223937716 3.2343821660589387 3.060938817416748 1.6851306788766651 3.9604898839416505 3.978930855082358 0.7586903269252445 0.42700184221467935 3.5549084051181836 3.524290937550131 1.6866242522473138 1.3356799479817651 0.42716516422475553 1.7697665004918435 2.1372989316592537 0.06766805809641113 0.7249235940753332 2.187263283427929 4.364124549376809 1.0586494004409173 2.1529400934914005 0.40227294781229256 3.2299745589030597 0.21524193727975532 1.239152002577806 4.714040851867583 2.821173175226334 0.4772377980945916 1.5221116493278735 3.9636615104551973 0.33443716248734146 1.6028227635628736 2.8908120589044346 2.6925789216953215 1.475099604733044 1.2990483762624234 2.8957803262935005 0.45159038173230126 1.829112668762826 3.0755560198064846 0.8802404116465339 4.591110769763054 1.300875709220383 1.6641076152706056 1.0300874875877848 1.9507284579744093 0.5272448153048727 3.939053238232281 3.3163384267111096 0.9618374029187906 1.2640092075909108 1.0965778370073893 0.7827277709804593 1.901898193220341 2.7802221192782572 1.2567476590321216 2.5560974355431 4.525999920563287 2.8779432647629943 2.1663877404233154 3.2893254635764353 3.807962014081201 3.8020887623713997 3.069393967307594 1.760193846522455 3.030574478540145 4.350120475505703 1.3760588693587381 2.7450342457831307 2.8543526513557094 1.8522864342443244 3.8098678170073446 3.1572996550387087 3.016908048134633 3.9952306351966858 1.9042125339413347 0.8565843164407076 3.7129951864392194 3.346235930264412 3.4942298686592808 1.193052824637195 3.019015726125518]

[36 13 79 80 53 70 18 60 30 15 32 76 93 93 73 9 34 9 14 3 14 52 49 7 33 25 51 100 74 92 82 44 16 10 89 6 17 69 89 43 4 62 63 82 64 19 38 74 72 57 67 89 18 33 89 56 42 43 25 11 45 87 60 91 36 45 21 71 33 34 62 66 91 4 48 85 19 52 9 91 26 98 3 78 58 42 84 45 19 72 21 33 69 48 89 6 98 93 1 45 50 41 87 65 18 19 92 51 83 26 55 84 50 66 62 43 100 14 54 37]
